models/minizinc/019_magic_square.fzn
% Generated by MiniZinc 2.9.3
% Solver library: /opt/homebrew/Cellar/minizinc/2.9.3/share/minizinc/gecode_presolver
% Command line invocation: minizinc --solver org.gecode --compile 019_magic_square.mzn 

predicate gecode_all_different_int(array [int] of var int: x);
array [1..5] of int: X_INTRODUCED_44_ = [1,1,1,1,1];
var 1..25: X_INTRODUCED_17_;
var 1..25: X_INTRODUCED_18_;
var 1..25: X_INTRODUCED_19_;
var 1..25: X_INTRODUCED_20_;
var 1..25: X_INTRODUCED_21_;
var 1..25: X_INTRODUCED_22_;
var 1..25: X_INTRODUCED_23_;
var 1..25: X_INTRODUCED_24_;
var 1..25: X_INTRODUCED_25_;
var 1..25: X_INTRODUCED_26_;
var 1..25: X_INTRODUCED_27_;
var 1..25: X_INTRODUCED_28_;
var 1..25: X_INTRODUCED_29_;
var 1..25: X_INTRODUCED_30_;
var 1..25: X_INTRODUCED_31_;
var 1..25: X_INTRODUCED_32_;
var 1..25: X_INTRODUCED_33_;
var 1..25: X_INTRODUCED_34_;
var 1..25: X_INTRODUCED_35_;
var 1..25: X_INTRODUCED_36_;
var 1..25: X_INTRODUCED_37_;
var 1..25: X_INTRODUCED_38_;
var 1..25: X_INTRODUCED_39_;
var 1..25: X_INTRODUCED_40_;
var 1..25: X_INTRODUCED_41_;
array [1..25] of var int: X_INTRODUCED_16_:: output_array([1..25]) = [X_INTRODUCED_17_,X_INTRODUCED_18_,X_INTRODUCED_19_,X_INTRODUCED_20_,X_INTRODUCED_21_,X_INTRODUCED_22_,X_INTRODUCED_23_,X_INTRODUCED_24_,X_INTRODUCED_25_,X_INTRODUCED_26_,X_INTRODUCED_27_,X_INTRODUCED_28_,X_INTRODUCED_29_,X_INTRODUCED_30_,X_INTRODUCED_31_,X_INTRODUCED_32_,X_INTRODUCED_33_,X_INTRODUCED_34_,X_INTRODUCED_35_,X_INTRODUCED_36_,X_INTRODUCED_37_,X_INTRODUCED_38_,X_INTRODUCED_39_,X_INTRODUCED_40_,X_INTRODUCED_41_];
array [1..25] of var int: X_INTRODUCED_42_ ::var_is_introduced  = [X_INTRODUCED_17_,X_INTRODUCED_18_,X_INTRODUCED_19_,X_INTRODUCED_20_,X_INTRODUCED_21_,X_INTRODUCED_22_,X_INTRODUCED_23_,X_INTRODUCED_24_,X_INTRODUCED_25_,X_INTRODUCED_26_,X_INTRODUCED_27_,X_INTRODUCED_28_,X_INTRODUCED_29_,X_INTRODUCED_30_,X_INTRODUCED_31_,X_INTRODUCED_32_,X_INTRODUCED_33_,X_INTRODUCED_34_,X_INTRODUCED_35_,X_INTRODUCED_36_,X_INTRODUCED_37_,X_INTRODUCED_38_,X_INTRODUCED_39_,X_INTRODUCED_40_,X_INTRODUCED_41_];
constraint gecode_all_different_int(X_INTRODUCED_42_):: domain;
constraint int_lin_eq(X_INTRODUCED_44_,[X_INTRODUCED_17_,X_INTRODUCED_18_,X_INTRODUCED_19_,X_INTRODUCED_20_,X_INTRODUCED_21_],65);
constraint int_lin_eq(X_INTRODUCED_44_,[X_INTRODUCED_17_,X_INTRODUCED_22_,X_INTRODUCED_27_,X_INTRODUCED_32_,X_INTRODUCED_37_],65);
constraint int_lin_eq(X_INTRODUCED_44_,[X_INTRODUCED_22_,X_INTRODUCED_23_,X_INTRODUCED_24_,X_INTRODUCED_25_,X_INTRODUCED_26_],65);
constraint int_lin_eq(X_INTRODUCED_44_,[X_INTRODUCED_18_,X_INTRODUCED_23_,X_INTRODUCED_28_,X_INTRODUCED_33_,X_INTRODUCED_38_],65);
constraint int_lin_eq(X_INTRODUCED_44_,[X_INTRODUCED_27_,X_INTRODUCED_28_,X_INTRODUCED_29_,X_INTRODUCED_30_,X_INTRODUCED_31_],65);
constraint int_lin_eq(X_INTRODUCED_44_,[X_INTRODUCED_19_,X_INTRODUCED_24_,X_INTRODUCED_29_,X_INTRODUCED_34_,X_INTRODUCED_39_],65);
constraint int_lin_eq(X_INTRODUCED_44_,[X_INTRODUCED_32_,X_INTRODUCED_33_,X_INTRODUCED_34_,X_INTRODUCED_35_,X_INTRODUCED_36_],65);
constraint int_lin_eq(X_INTRODUCED_44_,[X_INTRODUCED_20_,X_INTRODUCED_25_,X_INTRODUCED_30_,X_INTRODUCED_35_,X_INTRODUCED_40_],65);
constraint int_lin_eq(X_INTRODUCED_44_,[X_INTRODUCED_37_,X_INTRODUCED_38_,X_INTRODUCED_39_,X_INTRODUCED_40_,X_INTRODUCED_41_],65);
constraint int_lin_eq(X_INTRODUCED_44_,[X_INTRODUCED_21_,X_INTRODUCED_26_,X_INTRODUCED_31_,X_INTRODUCED_36_,X_INTRODUCED_41_],65);
constraint int_lin_eq(X_INTRODUCED_44_,[X_INTRODUCED_17_,X_INTRODUCED_23_,X_INTRODUCED_29_,X_INTRODUCED_35_,X_INTRODUCED_41_],65);
constraint int_lin_eq(X_INTRODUCED_44_,[X_INTRODUCED_21_,X_INTRODUCED_25_,X_INTRODUCED_29_,X_INTRODUCED_33_,X_INTRODUCED_37_],65);
solve :: int_search(X_INTRODUCED_42_,first_fail,indomain_min,complete) satisfy;
