models/minizinc/019_magic_square.ozn
output ([("Total: "++show(total))++"\n"]++[((if j==1 then "\n" else "" endif++if fix(magic[i,j]) < 10 then " " else "" endif)++show(magic[i,j]))++" " | i,j in 1..n])++["\n"];
int: total = 65;
int: n = 5;
array [1..25] of int: X_INTRODUCED_16_;
array [1..n,1..n] of int: magic = array2d(1..5,1..5,X_INTRODUCED_16_);
